number of jobs, number of machines, initial seed, upper bound and lower bound :
10           10   0000        0000        0000
processing times :
 71 43 59 2 82 49 80 36 97 20
 60 89 59 30 31 33 63 17 71 26
 57 75 40 5 44 69 81 50 89 24
 24 57 52 32 14 39 13 13 24 28
 52 75 67 75 94 79 66 43 60 72
 91 88 41 13 71 57 11 88 67 36
 20 63 6 35 74 55 53 80 50 95
 4 68 91 55 67 68 47 17 26 52
 26 50 28 81 2 95 69 75 81 26
 17 95 39 82 10 79 64 52 93 95
